db/data/2316853820362113882847122543232641293.z3.out
-------------------
2500.213022173
